3 3 2
30 1 139 0 127 1 63 2 80 0 66 1 47 0 9 1 10 0 188 2 7 1 47 0 40 2 76 1 199 0 79 2 134 0 37 2 83 0 123 2 195 0 167 1 181 0 24 2 122 1 166 0 1 1 15 2 89 0 97 1 97 
30 0 163 2 191 0 191 2 4 1 58 0 6 2 32 0 61 1 150 2 64 1 107 2 75 0 156 1 146 2 9 1 89 0 180 1 156 0 109 2 142 1 48 0 173 1 46 2 32 0 21 1 142 2 74 0 1 2 1 0 83 
30 1 77 2 82 1 1 2 21 1 51 0 176 2 166 0 72 1 162 2 168 0 130 1 106 0 72 1 139 2 139 1 83 0 97 2 2 0 8 1 5 2 177 0 72 1 198 2 184 0 83 1 94 0 16 1 60 0 122 2 94 

-------------
